Maximize
  - 5.298947774440999 edge_0_3_0_0 - 2.1681068289804 edge_0_4_0_0
   - 4.2764742754746 edge_0_10_0_0 - 3.2448256902556 edge_0_11_0_0
   - 4.430677681867699 edge_0_13_0_0 - 4.9182875732486 edge_0_14_0_0
   - 2.0717450291648 edge_0_16_0_0 - 3.5100254018607 edge_0_18_0_0
   - 4.5918935532459 edge_0_19_0_0 - 3.9629371056942 edge_0_21_0_0
   + 3.583867379342669 edge_3_2_0_0 + 1.290727080244298 edge_3_4_0_0
   - 0.9941019367685111 edge_3_6_0_0 + 0.9478745781285099 edge_3_8_0_0
   + 0.5727248253653924 edge_3_9_0_0 + 0.1012545109385375 edge_3_11_0_0
   + 0.3422209668218336 edge_3_12_0_0 - 1.104147483850562 edge_3_13_0_0
   - 0.5438088484245478 edge_3_15_0_0 - 0.3565448502511 edge_3_22_0_0
   + 0.8255303848045029 edge_4_2_0_0 + 1.362412932164128 edge_4_3_0_0
   + 0.2670048701441096 edge_4_6_0_0 + 0.1978494553568333 edge_4_7_0_0
   + 1.625652333821066 edge_4_8_0_0 + 2.191057274752104 edge_4_9_0_0
   - 0.365231070276293 edge_4_10_0_0 + 1.149132271221035 edge_4_11_0_0
   + 0.9954167959424401 edge_4_12_0_0 + 0.2982271844744579 edge_4_13_0_0
   - 0.7965073824736372 edge_4_14_0_0 - 0.1844975124239915 edge_4_15_0_0
   - 0.7867331068843426 edge_4_16_0_0 + 0.5074119943292703 edge_4_17_0_0
   - 2.113140143907085 edge_4_18_0_0 - 0.3534379227211263 edge_4_19_0_0
   - 1.622501558743747 edge_4_21_0_0 + 0.69828426496395 edge_4_22_0_0
   + 0.2199850162176475 edge_6_7_0_0 - 8.98325e-05 edge_6_8_0_0
   + 0.2487117418496801 edge_6_9_0_0 - 0.4570511552853454 edge_6_13_0_0
   - 0.1639866742129003 edge_8_9_0_0 + 0.1603506548024653 edge_9_8_0_0
   - 0.3550908459586483 edge_9_10_0_0 - 0.7488777429053894 edge_9_11_0_0
   - 0.2674735143059059 edge_9_12_0_0 - 0.918755055889617 edge_10_4_0_0
   - 0.2841610267178963 edge_10_9_0_0 + 1.052396880153492 edge_10_11_0_0
   + 0.575241043241392 edge_10_12_0_0 + 0.4188205036136253 edge_10_13_0_0
   - 0.015731575806944 edge_10_14_0_0 - 1.256562192034549 edge_10_15_0_0
   - 0.6626301427106185 edge_10_21_0_0 - 0.6296619587192163 edge_11_3_0_0
   - 0.3796176246508225 edge_11_4_0_0 - 0.8383146531554759 edge_11_6_0_0
   - 0.5300698529841394 edge_11_8_0_0 + 0.0761327972181796 edge_11_9_0_0
   + 2.851440262691186 edge_11_10_0_0 + 2.179012850445452 edge_11_12_0_0
   + 1.758169430021521 edge_11_13_0_0 + 0.0936097725370726 edge_11_14_0_0
   - 0.0276252663150983 edge_11_15_0_0 + 0.443105846594119 edge_11_16_0_0
   + 1.042064421713834 edge_11_17_0_0 - 1.42811183116185 edge_11_18_0_0
   - 0.3809273691461937 edge_11_19_0_0 - 1.120720798429483 edge_11_21_0_0
   + 0.9755396978509601 edge_11_22_0_0 - 0.221979295763664 edge_12_13_0_0
   - 1.228871052698241 edge_13_3_0_0 - 0.7612187186127473 edge_13_4_0_0
   - 0.3641046639773012 edge_13_6_0_0 - 0.2535367055252589 edge_13_8_0_0
   - 0.5857281174915209 edge_13_9_0_0 + 0.4396958497290931 edge_13_10_0_0
   + 0.3318707376028829 edge_13_11_0_0 + 1.451454993060512 edge_13_12_0_0
   + 0.9898628637407927 edge_13_14_0_0 + 0.8189192297727569 edge_13_15_0_0
   + 0.5832642789641453 edge_13_16_0_0 + 1.035083144894847 edge_13_17_0_0
   + 0.4658075251803827 edge_13_18_0_0 + 0.9009103934782522 edge_13_19_0_0
   + 0.2441517922270899 edge_13_21_0_0 + 1.2976715016005 edge_13_22_0_0
   - 1.65513247035237 edge_14_3_0_0 - 0.0816086931325461 edge_14_4_0_0
   - 1.242295976598104 edge_14_6_0_0 - 0.2701653302315708 edge_14_8_0_0
   - 0.103772846561753 edge_14_10_0_0 - 0.3338971302168821 edge_14_11_0_0
   - 0.0638744877934963 edge_14_12_0_0 - 0.1725979960033173 edge_14_13_0_0
   + 0.160135533814321 edge_14_15_0_0 - 0.4059782974979815 edge_14_16_0_0
   - 0.1071812296656703 edge_14_17_0_0 - 0.9301753268137256 edge_14_18_0_0
   - 0.611191227475006 edge_14_19_0_0 - 1.092968191354831 edge_14_21_0_0
   - 0.7251679238745 edge_14_22_0_0 - 0.2593995725550063 edge_15_4_0_0
   + 0.4960845000157723 edge_15_14_0_0 + 1.011521439705667 edge_15_16_0_0
   + 0.3959765664177943 edge_15_17_0_0 - 1.438731750357638 edge_15_18_0_0
   - 0.2186017518278646 edge_15_19_0_0 - 0.3451041299535487 edge_15_21_0_0
   - 0.31369760815708 edge_15_22_0_0 - 1.0431907518149 edge_16_3_0_0
   - 0.7871537108654704 edge_16_6_0_0 + 0.2297172054098081 edge_16_10_0_0
   + 0.4561740937716425 edge_16_14_0_0 + 1.676669560499699 edge_16_15_0_0
   + 1.605689190696399 edge_16_17_0_0 + 0.9789545336602009 edge_16_18_0_0
   + 0.2381796991145599 edge_16_19_0_0 + 0.00291962897756362 edge_16_21_0_0
   + 0.38697196087968 edge_16_22_0_0 + 0.2400808934439776 edge_17_18_0_0
   - 0.6504484213071319 edge_18_16_0_0 - 0.0946287266890316 edge_18_17_0_0
   + 0.6042628713639315 edge_18_19_0_0 + 0.37043551472884 edge_18_22_0_0
   - 3.003298095988169 edge_19_3_0_0 - 1.779038236472461 edge_19_4_0_0
   - 1.580787905701319 edge_19_10_0_0 - 0.8339912749616494 edge_19_12_0_0
   - 0.0777297155635938 edge_19_14_0_0 + 0.7238011119382209 edge_19_15_0_0
   + 0.2628204914803371 edge_19_16_0_0 - 0.0750457817985748 edge_19_17_0_0
   + 2.260320410022084 edge_19_18_0_0 + 0.6283530093730129 edge_19_21_0_0
   - 0.16229838271014 edge_19_22_0_0 - 1.357829864256618 edge_21_3_0_0
   - 0.8619741112528734 edge_21_4_0_0 - 1.42294146186924 edge_21_6_0_0
   - 1.300264776203761 edge_21_8_0_0 + 0.1464672724049503 edge_21_9_0_0
   + 0.1284659185362535 edge_21_10_0_0 - 0.0382157174491928 edge_21_11_0_0
   - 0.3749235556609058 edge_21_12_0_0 - 0.1825909776526499 edge_21_13_0_0
   + 0.7276024948642953 edge_21_14_0_0 + 1.621159664437315 edge_21_15_0_0
   + 0.4690260362592074 edge_21_16_0_0 + 0.8630453798388523 edge_21_17_0_0
   + 1.087049196217887 edge_21_18_0_0 + 2.678380658157974 edge_21_19_0_0
   + 1.0547133121702 edge_21_22_0_0
Subject To
 one_parent_1: = 1
 consume_one_flow_unit_1: = 1
 one_parent_2: edge_3_2_0_0 + edge_4_2_0_0 = 1
 consume_one_flow_unit_2: flow_3_2_0_0 + flow_4_2_0_0 = 1
 one_parent_3: edge_0_3_0_0 + edge_4_3_0_0 + edge_11_3_0_0 + edge_13_3_0_0
   + edge_14_3_0_0 + edge_16_3_0_0 + edge_19_3_0_0 + edge_21_3_0_0 = 1
 consume_one_flow_unit_3: flow_0_3_0_0 - flow_3_2_0_0 - flow_3_4_0_0
   - flow_3_6_0_0 - flow_3_8_0_0 - flow_3_9_0_0 - flow_3_11_0_0
   - flow_3_12_0_0 - flow_3_13_0_0 - flow_3_15_0_0 - flow_3_22_0_0
   + flow_4_3_0_0 + flow_11_3_0_0 + flow_13_3_0_0 + flow_14_3_0_0
   + flow_16_3_0_0 + flow_19_3_0_0 + flow_21_3_0_0 = 1
 one_parent_4: edge_0_4_0_0 + edge_3_4_0_0 + edge_10_4_0_0 + edge_11_4_0_0
   + edge_13_4_0_0 + edge_14_4_0_0 + edge_15_4_0_0 + edge_19_4_0_0
   + edge_21_4_0_0 = 1
 consume_one_flow_unit_4: flow_0_4_0_0 + flow_3_4_0_0 - flow_4_2_0_0
   - flow_4_3_0_0 - flow_4_6_0_0 - flow_4_7_0_0 - flow_4_8_0_0
   - flow_4_9_0_0 - flow_4_10_0_0 - flow_4_11_0_0 - flow_4_12_0_0
   - flow_4_13_0_0 - flow_4_14_0_0 - flow_4_15_0_0 - flow_4_16_0_0
   - flow_4_17_0_0 - flow_4_18_0_0 - flow_4_19_0_0 - flow_4_21_0_0
   - flow_4_22_0_0 + flow_10_4_0_0 + flow_11_4_0_0 + flow_13_4_0_0
   + flow_14_4_0_0 + flow_15_4_0_0 + flow_19_4_0_0 + flow_21_4_0_0 = 1
 one_parent_5: = 1
 consume_one_flow_unit_5: = 1
 one_parent_6: edge_3_6_0_0 + edge_4_6_0_0 + edge_11_6_0_0 + edge_13_6_0_0
   + edge_14_6_0_0 + edge_16_6_0_0 + edge_21_6_0_0 = 1
 consume_one_flow_unit_6: flow_3_6_0_0 + flow_4_6_0_0 - flow_6_7_0_0
   - flow_6_8_0_0 - flow_6_9_0_0 - flow_6_13_0_0 + flow_11_6_0_0
   + flow_13_6_0_0 + flow_14_6_0_0 + flow_16_6_0_0 + flow_21_6_0_0 = 1
 one_parent_7: edge_4_7_0_0 + edge_6_7_0_0 = 1
 consume_one_flow_unit_7: flow_4_7_0_0 + flow_6_7_0_0 = 1
 one_parent_8: edge_3_8_0_0 + edge_4_8_0_0 + edge_6_8_0_0 + edge_9_8_0_0
   + edge_11_8_0_0 + edge_13_8_0_0 + edge_14_8_0_0 + edge_21_8_0_0 = 1
 consume_one_flow_unit_8: flow_3_8_0_0 + flow_4_8_0_0 + flow_6_8_0_0
   - flow_8_9_0_0 + flow_9_8_0_0 + flow_11_8_0_0 + flow_13_8_0_0
   + flow_14_8_0_0 + flow_21_8_0_0 = 1
 one_parent_9: edge_3_9_0_0 + edge_4_9_0_0 + edge_6_9_0_0 + edge_8_9_0_0
   + edge_10_9_0_0 + edge_11_9_0_0 + edge_13_9_0_0 + edge_21_9_0_0 = 1
 consume_one_flow_unit_9: flow_3_9_0_0 + flow_4_9_0_0 + flow_6_9_0_0
   + flow_8_9_0_0 - flow_9_8_0_0 - flow_9_10_0_0 - flow_9_11_0_0
   - flow_9_12_0_0 + flow_10_9_0_0 + flow_11_9_0_0 + flow_13_9_0_0
   + flow_21_9_0_0 = 1
 one_parent_10: edge_0_10_0_0 + edge_4_10_0_0 + edge_9_10_0_0
   + edge_11_10_0_0 + edge_13_10_0_0 + edge_14_10_0_0 + edge_16_10_0_0
   + edge_19_10_0_0 + edge_21_10_0_0 = 1
 consume_one_flow_unit_10: flow_0_10_0_0 + flow_4_10_0_0 + flow_9_10_0_0
   - flow_10_4_0_0 - flow_10_9_0_0 - flow_10_11_0_0 - flow_10_12_0_0
   - flow_10_13_0_0 - flow_10_14_0_0 - flow_10_15_0_0 - flow_10_21_0_0
   + flow_11_10_0_0 + flow_13_10_0_0 + flow_14_10_0_0 + flow_16_10_0_0
   + flow_19_10_0_0 + flow_21_10_0_0 = 1
 one_parent_11: edge_0_11_0_0 + edge_3_11_0_0 + edge_4_11_0_0
   + edge_9_11_0_0 + edge_10_11_0_0 + edge_13_11_0_0 + edge_14_11_0_0
   + edge_21_11_0_0 = 1
 consume_one_flow_unit_11: flow_0_11_0_0 + flow_3_11_0_0 + flow_4_11_0_0
   + flow_9_11_0_0 + flow_10_11_0_0 - flow_11_3_0_0 - flow_11_4_0_0
   - flow_11_6_0_0 - flow_11_8_0_0 - flow_11_9_0_0 - flow_11_10_0_0
   - flow_11_12_0_0 - flow_11_13_0_0 - flow_11_14_0_0 - flow_11_15_0_0
   - flow_11_16_0_0 - flow_11_17_0_0 - flow_11_18_0_0 - flow_11_19_0_0
   - flow_11_21_0_0 - flow_11_22_0_0 + flow_13_11_0_0 + flow_14_11_0_0
   + flow_21_11_0_0 = 1
 one_parent_12: edge_3_12_0_0 + edge_4_12_0_0 + edge_9_12_0_0
   + edge_10_12_0_0 + edge_11_12_0_0 + edge_13_12_0_0 + edge_14_12_0_0
   + edge_19_12_0_0 + edge_21_12_0_0 = 1
 consume_one_flow_unit_12: flow_3_12_0_0 + flow_4_12_0_0 + flow_9_12_0_0
   + flow_10_12_0_0 + flow_11_12_0_0 - flow_12_13_0_0 + flow_13_12_0_0
   + flow_14_12_0_0 + flow_19_12_0_0 + flow_21_12_0_0 = 1
 one_parent_13: edge_0_13_0_0 + edge_3_13_0_0 + edge_4_13_0_0
   + edge_6_13_0_0 + edge_10_13_0_0 + edge_11_13_0_0 + edge_12_13_0_0
   + edge_14_13_0_0 + edge_21_13_0_0 = 1
 consume_one_flow_unit_13: flow_0_13_0_0 + flow_3_13_0_0 + flow_4_13_0_0
   + flow_6_13_0_0 + flow_10_13_0_0 + flow_11_13_0_0 + flow_12_13_0_0
   - flow_13_3_0_0 - flow_13_4_0_0 - flow_13_6_0_0 - flow_13_8_0_0
   - flow_13_9_0_0 - flow_13_10_0_0 - flow_13_11_0_0 - flow_13_12_0_0
   - flow_13_14_0_0 - flow_13_15_0_0 - flow_13_16_0_0 - flow_13_17_0_0
   - flow_13_18_0_0 - flow_13_19_0_0 - flow_13_21_0_0 - flow_13_22_0_0
   + flow_14_13_0_0 + flow_21_13_0_0 = 1
 one_parent_14: edge_0_14_0_0 + edge_4_14_0_0 + edge_10_14_0_0
   + edge_11_14_0_0 + edge_13_14_0_0 + edge_15_14_0_0 + edge_16_14_0_0
   + edge_19_14_0_0 + edge_21_14_0_0 = 1
 consume_one_flow_unit_14: flow_0_14_0_0 + flow_4_14_0_0 + flow_10_14_0_0
   + flow_11_14_0_0 + flow_13_14_0_0 - flow_14_3_0_0 - flow_14_4_0_0
   - flow_14_6_0_0 - flow_14_8_0_0 - flow_14_10_0_0 - flow_14_11_0_0
   - flow_14_12_0_0 - flow_14_13_0_0 - flow_14_15_0_0 - flow_14_16_0_0
   - flow_14_17_0_0 - flow_14_18_0_0 - flow_14_19_0_0 - flow_14_21_0_0
   - flow_14_22_0_0 + flow_15_14_0_0 + flow_16_14_0_0 + flow_19_14_0_0
   + flow_21_14_0_0 = 1
 one_parent_15: edge_3_15_0_0 + edge_4_15_0_0 + edge_10_15_0_0
   + edge_11_15_0_0 + edge_13_15_0_0 + edge_14_15_0_0 + edge_16_15_0_0
   + edge_19_15_0_0 + edge_21_15_0_0 = 1
 consume_one_flow_unit_15: flow_3_15_0_0 + flow_4_15_0_0 + flow_10_15_0_0
   + flow_11_15_0_0 + flow_13_15_0_0 + flow_14_15_0_0 - flow_15_4_0_0
   - flow_15_14_0_0 - flow_15_16_0_0 - flow_15_17_0_0 - flow_15_18_0_0
   - flow_15_19_0_0 - flow_15_21_0_0 - flow_15_22_0_0 + flow_16_15_0_0
   + flow_19_15_0_0 + flow_21_15_0_0 = 1
 one_parent_16: edge_0_16_0_0 + edge_4_16_0_0 + edge_11_16_0_0
   + edge_13_16_0_0 + edge_14_16_0_0 + edge_15_16_0_0 + edge_18_16_0_0
   + edge_19_16_0_0 + edge_21_16_0_0 = 1
 consume_one_flow_unit_16: flow_0_16_0_0 + flow_4_16_0_0 + flow_11_16_0_0
   + flow_13_16_0_0 + flow_14_16_0_0 + flow_15_16_0_0 - flow_16_3_0_0
   - flow_16_6_0_0 - flow_16_10_0_0 - flow_16_14_0_0 - flow_16_15_0_0
   - flow_16_17_0_0 - flow_16_18_0_0 - flow_16_19_0_0 - flow_16_21_0_0
   - flow_16_22_0_0 + flow_18_16_0_0 + flow_19_16_0_0 + flow_21_16_0_0 = 1
 one_parent_17: edge_4_17_0_0 + edge_11_17_0_0 + edge_13_17_0_0
   + edge_14_17_0_0 + edge_15_17_0_0 + edge_16_17_0_0 + edge_18_17_0_0
   + edge_19_17_0_0 + edge_21_17_0_0 = 1
 consume_one_flow_unit_17: flow_4_17_0_0 + flow_11_17_0_0 + flow_13_17_0_0
   + flow_14_17_0_0 + flow_15_17_0_0 + flow_16_17_0_0 - flow_17_18_0_0
   + flow_18_17_0_0 + flow_19_17_0_0 + flow_21_17_0_0 = 1
 one_parent_18: edge_0_18_0_0 + edge_4_18_0_0 + edge_11_18_0_0
   + edge_13_18_0_0 + edge_14_18_0_0 + edge_15_18_0_0 + edge_16_18_0_0
   + edge_17_18_0_0 + edge_19_18_0_0 + edge_21_18_0_0 = 1
 consume_one_flow_unit_18: flow_0_18_0_0 + flow_4_18_0_0 + flow_11_18_0_0
   + flow_13_18_0_0 + flow_14_18_0_0 + flow_15_18_0_0 + flow_16_18_0_0
   + flow_17_18_0_0 - flow_18_16_0_0 - flow_18_17_0_0 - flow_18_19_0_0
   - flow_18_22_0_0 + flow_19_18_0_0 + flow_21_18_0_0 = 1
 one_parent_19: edge_0_19_0_0 + edge_4_19_0_0 + edge_11_19_0_0
   + edge_13_19_0_0 + edge_14_19_0_0 + edge_15_19_0_0 + edge_16_19_0_0
   + edge_18_19_0_0 + edge_21_19_0_0 = 1
 consume_one_flow_unit_19: flow_0_19_0_0 + flow_4_19_0_0 + flow_11_19_0_0
   + flow_13_19_0_0 + flow_14_19_0_0 + flow_15_19_0_0 + flow_16_19_0_0
   + flow_18_19_0_0 - flow_19_3_0_0 - flow_19_4_0_0 - flow_19_10_0_0
   - flow_19_12_0_0 - flow_19_14_0_0 - flow_19_15_0_0 - flow_19_16_0_0
   - flow_19_17_0_0 - flow_19_18_0_0 - flow_19_21_0_0 - flow_19_22_0_0
   + flow_21_19_0_0 = 1
 one_parent_20: = 1
 consume_one_flow_unit_20: = 1
 one_parent_21: edge_0_21_0_0 + edge_4_21_0_0 + edge_10_21_0_0
   + edge_11_21_0_0 + edge_13_21_0_0 + edge_14_21_0_0 + edge_15_21_0_0
   + edge_16_21_0_0 + edge_19_21_0_0 = 1
 consume_one_flow_unit_21: flow_0_21_0_0 + flow_4_21_0_0 + flow_10_21_0_0
   + flow_11_21_0_0 + flow_13_21_0_0 + flow_14_21_0_0 + flow_15_21_0_0
   + flow_16_21_0_0 + flow_19_21_0_0 - flow_21_3_0_0 - flow_21_4_0_0
   - flow_21_6_0_0 - flow_21_8_0_0 - flow_21_9_0_0 - flow_21_10_0_0
   - flow_21_11_0_0 - flow_21_12_0_0 - flow_21_13_0_0 - flow_21_14_0_0
   - flow_21_15_0_0 - flow_21_16_0_0 - flow_21_17_0_0 - flow_21_18_0_0
   - flow_21_19_0_0 - flow_21_22_0_0 = 1
 one_parent_22: edge_3_22_0_0 + edge_4_22_0_0 + edge_11_22_0_0
   + edge_13_22_0_0 + edge_14_22_0_0 + edge_15_22_0_0 + edge_16_22_0_0
   + edge_18_22_0_0 + edge_19_22_0_0 + edge_21_22_0_0 = 1
 consume_one_flow_unit_22: flow_3_22_0_0 + flow_4_22_0_0 + flow_11_22_0_0
   + flow_13_22_0_0 + flow_14_22_0_0 + flow_15_22_0_0 + flow_16_22_0_0
   + flow_18_22_0_0 + flow_19_22_0_0 + flow_21_22_0_0 = 1
 root_flow: flow_0_3_0_0 + flow_0_4_0_0 + flow_0_10_0_0 + flow_0_11_0_0
   + flow_0_13_0_0 + flow_0_14_0_0 + flow_0_16_0_0 + flow_0_18_0_0
   + flow_0_19_0_0 + flow_0_21_0_0 = 22
 inactive_no_flow_0_3_0_0: flow_0_3_0_0 - 1000 edge_0_3_0_0 <= 0
 inactive_no_flow_0_4_0_0: flow_0_4_0_0 - 1000 edge_0_4_0_0 <= 0
 inactive_no_flow_0_10_0_0: flow_0_10_0_0 - 1000 edge_0_10_0_0 <= 0
 inactive_no_flow_0_11_0_0: flow_0_11_0_0 - 1000 edge_0_11_0_0 <= 0
 inactive_no_flow_0_13_0_0: flow_0_13_0_0 - 1000 edge_0_13_0_0 <= 0
 inactive_no_flow_0_14_0_0: flow_0_14_0_0 - 1000 edge_0_14_0_0 <= 0
 inactive_no_flow_0_16_0_0: flow_0_16_0_0 - 1000 edge_0_16_0_0 <= 0
 inactive_no_flow_0_18_0_0: flow_0_18_0_0 - 1000 edge_0_18_0_0 <= 0
 inactive_no_flow_0_19_0_0: flow_0_19_0_0 - 1000 edge_0_19_0_0 <= 0
 inactive_no_flow_0_21_0_0: flow_0_21_0_0 - 1000 edge_0_21_0_0 <= 0
 inactive_no_flow_3_2_0_0: flow_3_2_0_0 - 1000 edge_3_2_0_0 <= 0
 inactive_no_flow_3_4_0_0: flow_3_4_0_0 - 1000 edge_3_4_0_0 <= 0
 inactive_no_flow_3_6_0_0: flow_3_6_0_0 - 1000 edge_3_6_0_0 <= 0
 inactive_no_flow_3_8_0_0: flow_3_8_0_0 - 1000 edge_3_8_0_0 <= 0
 inactive_no_flow_3_9_0_0: flow_3_9_0_0 - 1000 edge_3_9_0_0 <= 0
 inactive_no_flow_3_11_0_0: flow_3_11_0_0 - 1000 edge_3_11_0_0 <= 0
 inactive_no_flow_3_12_0_0: flow_3_12_0_0 - 1000 edge_3_12_0_0 <= 0
 inactive_no_flow_3_13_0_0: flow_3_13_0_0 - 1000 edge_3_13_0_0 <= 0
 inactive_no_flow_3_15_0_0: flow_3_15_0_0 - 1000 edge_3_15_0_0 <= 0
 inactive_no_flow_3_22_0_0: flow_3_22_0_0 - 1000 edge_3_22_0_0 <= 0
 inactive_no_flow_4_2_0_0: flow_4_2_0_0 - 1000 edge_4_2_0_0 <= 0
 inactive_no_flow_4_3_0_0: flow_4_3_0_0 - 1000 edge_4_3_0_0 <= 0
 inactive_no_flow_4_6_0_0: flow_4_6_0_0 - 1000 edge_4_6_0_0 <= 0
 inactive_no_flow_4_7_0_0: flow_4_7_0_0 - 1000 edge_4_7_0_0 <= 0
 inactive_no_flow_4_8_0_0: flow_4_8_0_0 - 1000 edge_4_8_0_0 <= 0
 inactive_no_flow_4_9_0_0: flow_4_9_0_0 - 1000 edge_4_9_0_0 <= 0
 inactive_no_flow_4_10_0_0: flow_4_10_0_0 - 1000 edge_4_10_0_0 <= 0
 inactive_no_flow_4_11_0_0: flow_4_11_0_0 - 1000 edge_4_11_0_0 <= 0
 inactive_no_flow_4_12_0_0: flow_4_12_0_0 - 1000 edge_4_12_0_0 <= 0
 inactive_no_flow_4_13_0_0: flow_4_13_0_0 - 1000 edge_4_13_0_0 <= 0
 inactive_no_flow_4_14_0_0: flow_4_14_0_0 - 1000 edge_4_14_0_0 <= 0
 inactive_no_flow_4_15_0_0: flow_4_15_0_0 - 1000 edge_4_15_0_0 <= 0
 inactive_no_flow_4_16_0_0: flow_4_16_0_0 - 1000 edge_4_16_0_0 <= 0
 inactive_no_flow_4_17_0_0: flow_4_17_0_0 - 1000 edge_4_17_0_0 <= 0
 inactive_no_flow_4_18_0_0: flow_4_18_0_0 - 1000 edge_4_18_0_0 <= 0
 inactive_no_flow_4_19_0_0: flow_4_19_0_0 - 1000 edge_4_19_0_0 <= 0
 inactive_no_flow_4_21_0_0: flow_4_21_0_0 - 1000 edge_4_21_0_0 <= 0
 inactive_no_flow_4_22_0_0: flow_4_22_0_0 - 1000 edge_4_22_0_0 <= 0
 inactive_no_flow_6_7_0_0: flow_6_7_0_0 - 1000 edge_6_7_0_0 <= 0
 inactive_no_flow_6_8_0_0: flow_6_8_0_0 - 1000 edge_6_8_0_0 <= 0
 inactive_no_flow_6_9_0_0: flow_6_9_0_0 - 1000 edge_6_9_0_0 <= 0
 inactive_no_flow_6_13_0_0: flow_6_13_0_0 - 1000 edge_6_13_0_0 <= 0
 inactive_no_flow_8_9_0_0: flow_8_9_0_0 - 1000 edge_8_9_0_0 <= 0
 inactive_no_flow_9_8_0_0: flow_9_8_0_0 - 1000 edge_9_8_0_0 <= 0
 inactive_no_flow_9_10_0_0: flow_9_10_0_0 - 1000 edge_9_10_0_0 <= 0
 inactive_no_flow_9_11_0_0: flow_9_11_0_0 - 1000 edge_9_11_0_0 <= 0
 inactive_no_flow_9_12_0_0: flow_9_12_0_0 - 1000 edge_9_12_0_0 <= 0
 inactive_no_flow_10_4_0_0: flow_10_4_0_0 - 1000 edge_10_4_0_0 <= 0
 inactive_no_flow_10_9_0_0: flow_10_9_0_0 - 1000 edge_10_9_0_0 <= 0
 inactive_no_flow_10_11_0_0: flow_10_11_0_0 - 1000 edge_10_11_0_0 <= 0
 inactive_no_flow_10_12_0_0: flow_10_12_0_0 - 1000 edge_10_12_0_0 <= 0
 inactive_no_flow_10_13_0_0: flow_10_13_0_0 - 1000 edge_10_13_0_0 <= 0
 inactive_no_flow_10_14_0_0: flow_10_14_0_0 - 1000 edge_10_14_0_0 <= 0
 inactive_no_flow_10_15_0_0: flow_10_15_0_0 - 1000 edge_10_15_0_0 <= 0
 inactive_no_flow_10_21_0_0: flow_10_21_0_0 - 1000 edge_10_21_0_0 <= 0
 inactive_no_flow_11_3_0_0: flow_11_3_0_0 - 1000 edge_11_3_0_0 <= 0
 inactive_no_flow_11_4_0_0: flow_11_4_0_0 - 1000 edge_11_4_0_0 <= 0
 inactive_no_flow_11_6_0_0: flow_11_6_0_0 - 1000 edge_11_6_0_0 <= 0
 inactive_no_flow_11_8_0_0: flow_11_8_0_0 - 1000 edge_11_8_0_0 <= 0
 inactive_no_flow_11_9_0_0: flow_11_9_0_0 - 1000 edge_11_9_0_0 <= 0
 inactive_no_flow_11_10_0_0: flow_11_10_0_0 - 1000 edge_11_10_0_0 <= 0
 inactive_no_flow_11_12_0_0: flow_11_12_0_0 - 1000 edge_11_12_0_0 <= 0
 inactive_no_flow_11_13_0_0: flow_11_13_0_0 - 1000 edge_11_13_0_0 <= 0
 inactive_no_flow_11_14_0_0: flow_11_14_0_0 - 1000 edge_11_14_0_0 <= 0
 inactive_no_flow_11_15_0_0: flow_11_15_0_0 - 1000 edge_11_15_0_0 <= 0
 inactive_no_flow_11_16_0_0: flow_11_16_0_0 - 1000 edge_11_16_0_0 <= 0
 inactive_no_flow_11_17_0_0: flow_11_17_0_0 - 1000 edge_11_17_0_0 <= 0
 inactive_no_flow_11_18_0_0: flow_11_18_0_0 - 1000 edge_11_18_0_0 <= 0
 inactive_no_flow_11_19_0_0: flow_11_19_0_0 - 1000 edge_11_19_0_0 <= 0
 inactive_no_flow_11_21_0_0: flow_11_21_0_0 - 1000 edge_11_21_0_0 <= 0
 inactive_no_flow_11_22_0_0: flow_11_22_0_0 - 1000 edge_11_22_0_0 <= 0
 inactive_no_flow_12_13_0_0: flow_12_13_0_0 - 1000 edge_12_13_0_0 <= 0
 inactive_no_flow_13_3_0_0: flow_13_3_0_0 - 1000 edge_13_3_0_0 <= 0
 inactive_no_flow_13_4_0_0: flow_13_4_0_0 - 1000 edge_13_4_0_0 <= 0
 inactive_no_flow_13_6_0_0: flow_13_6_0_0 - 1000 edge_13_6_0_0 <= 0
 inactive_no_flow_13_8_0_0: flow_13_8_0_0 - 1000 edge_13_8_0_0 <= 0
 inactive_no_flow_13_9_0_0: flow_13_9_0_0 - 1000 edge_13_9_0_0 <= 0
 inactive_no_flow_13_10_0_0: flow_13_10_0_0 - 1000 edge_13_10_0_0 <= 0
 inactive_no_flow_13_11_0_0: flow_13_11_0_0 - 1000 edge_13_11_0_0 <= 0
 inactive_no_flow_13_12_0_0: flow_13_12_0_0 - 1000 edge_13_12_0_0 <= 0
 inactive_no_flow_13_14_0_0: flow_13_14_0_0 - 1000 edge_13_14_0_0 <= 0
 inactive_no_flow_13_15_0_0: flow_13_15_0_0 - 1000 edge_13_15_0_0 <= 0
 inactive_no_flow_13_16_0_0: flow_13_16_0_0 - 1000 edge_13_16_0_0 <= 0
 inactive_no_flow_13_17_0_0: flow_13_17_0_0 - 1000 edge_13_17_0_0 <= 0
 inactive_no_flow_13_18_0_0: flow_13_18_0_0 - 1000 edge_13_18_0_0 <= 0
 inactive_no_flow_13_19_0_0: flow_13_19_0_0 - 1000 edge_13_19_0_0 <= 0
 inactive_no_flow_13_21_0_0: flow_13_21_0_0 - 1000 edge_13_21_0_0 <= 0
 inactive_no_flow_13_22_0_0: flow_13_22_0_0 - 1000 edge_13_22_0_0 <= 0
 inactive_no_flow_14_3_0_0: flow_14_3_0_0 - 1000 edge_14_3_0_0 <= 0
 inactive_no_flow_14_4_0_0: flow_14_4_0_0 - 1000 edge_14_4_0_0 <= 0
 inactive_no_flow_14_6_0_0: flow_14_6_0_0 - 1000 edge_14_6_0_0 <= 0
 inactive_no_flow_14_8_0_0: flow_14_8_0_0 - 1000 edge_14_8_0_0 <= 0
 inactive_no_flow_14_10_0_0: flow_14_10_0_0 - 1000 edge_14_10_0_0 <= 0
 inactive_no_flow_14_11_0_0: flow_14_11_0_0 - 1000 edge_14_11_0_0 <= 0
 inactive_no_flow_14_12_0_0: flow_14_12_0_0 - 1000 edge_14_12_0_0 <= 0
 inactive_no_flow_14_13_0_0: flow_14_13_0_0 - 1000 edge_14_13_0_0 <= 0
 inactive_no_flow_14_15_0_0: flow_14_15_0_0 - 1000 edge_14_15_0_0 <= 0
 inactive_no_flow_14_16_0_0: flow_14_16_0_0 - 1000 edge_14_16_0_0 <= 0
 inactive_no_flow_14_17_0_0: flow_14_17_0_0 - 1000 edge_14_17_0_0 <= 0
 inactive_no_flow_14_18_0_0: flow_14_18_0_0 - 1000 edge_14_18_0_0 <= 0
 inactive_no_flow_14_19_0_0: flow_14_19_0_0 - 1000 edge_14_19_0_0 <= 0
 inactive_no_flow_14_21_0_0: flow_14_21_0_0 - 1000 edge_14_21_0_0 <= 0
 inactive_no_flow_14_22_0_0: flow_14_22_0_0 - 1000 edge_14_22_0_0 <= 0
 inactive_no_flow_15_4_0_0: flow_15_4_0_0 - 1000 edge_15_4_0_0 <= 0
 inactive_no_flow_15_14_0_0: flow_15_14_0_0 - 1000 edge_15_14_0_0 <= 0
 inactive_no_flow_15_16_0_0: flow_15_16_0_0 - 1000 edge_15_16_0_0 <= 0
 inactive_no_flow_15_17_0_0: flow_15_17_0_0 - 1000 edge_15_17_0_0 <= 0
 inactive_no_flow_15_18_0_0: flow_15_18_0_0 - 1000 edge_15_18_0_0 <= 0
 inactive_no_flow_15_19_0_0: flow_15_19_0_0 - 1000 edge_15_19_0_0 <= 0
 inactive_no_flow_15_21_0_0: flow_15_21_0_0 - 1000 edge_15_21_0_0 <= 0
 inactive_no_flow_15_22_0_0: flow_15_22_0_0 - 1000 edge_15_22_0_0 <= 0
 inactive_no_flow_16_3_0_0: flow_16_3_0_0 - 1000 edge_16_3_0_0 <= 0
 inactive_no_flow_16_6_0_0: flow_16_6_0_0 - 1000 edge_16_6_0_0 <= 0
 inactive_no_flow_16_10_0_0: flow_16_10_0_0 - 1000 edge_16_10_0_0 <= 0
 inactive_no_flow_16_14_0_0: flow_16_14_0_0 - 1000 edge_16_14_0_0 <= 0
 inactive_no_flow_16_15_0_0: flow_16_15_0_0 - 1000 edge_16_15_0_0 <= 0
 inactive_no_flow_16_17_0_0: flow_16_17_0_0 - 1000 edge_16_17_0_0 <= 0
 inactive_no_flow_16_18_0_0: flow_16_18_0_0 - 1000 edge_16_18_0_0 <= 0
 inactive_no_flow_16_19_0_0: flow_16_19_0_0 - 1000 edge_16_19_0_0 <= 0
 inactive_no_flow_16_21_0_0: flow_16_21_0_0 - 1000 edge_16_21_0_0 <= 0
 inactive_no_flow_16_22_0_0: flow_16_22_0_0 - 1000 edge_16_22_0_0 <= 0
 inactive_no_flow_17_18_0_0: flow_17_18_0_0 - 1000 edge_17_18_0_0 <= 0
 inactive_no_flow_18_16_0_0: flow_18_16_0_0 - 1000 edge_18_16_0_0 <= 0
 inactive_no_flow_18_17_0_0: flow_18_17_0_0 - 1000 edge_18_17_0_0 <= 0
 inactive_no_flow_18_19_0_0: flow_18_19_0_0 - 1000 edge_18_19_0_0 <= 0
 inactive_no_flow_18_22_0_0: flow_18_22_0_0 - 1000 edge_18_22_0_0 <= 0
 inactive_no_flow_19_3_0_0: flow_19_3_0_0 - 1000 edge_19_3_0_0 <= 0
 inactive_no_flow_19_4_0_0: flow_19_4_0_0 - 1000 edge_19_4_0_0 <= 0
 inactive_no_flow_19_10_0_0: flow_19_10_0_0 - 1000 edge_19_10_0_0 <= 0
 inactive_no_flow_19_12_0_0: flow_19_12_0_0 - 1000 edge_19_12_0_0 <= 0
 inactive_no_flow_19_14_0_0: flow_19_14_0_0 - 1000 edge_19_14_0_0 <= 0
 inactive_no_flow_19_15_0_0: flow_19_15_0_0 - 1000 edge_19_15_0_0 <= 0
 inactive_no_flow_19_16_0_0: flow_19_16_0_0 - 1000 edge_19_16_0_0 <= 0
 inactive_no_flow_19_17_0_0: flow_19_17_0_0 - 1000 edge_19_17_0_0 <= 0
 inactive_no_flow_19_18_0_0: flow_19_18_0_0 - 1000 edge_19_18_0_0 <= 0
 inactive_no_flow_19_21_0_0: flow_19_21_0_0 - 1000 edge_19_21_0_0 <= 0
 inactive_no_flow_19_22_0_0: flow_19_22_0_0 - 1000 edge_19_22_0_0 <= 0
 inactive_no_flow_21_3_0_0: flow_21_3_0_0 - 1000 edge_21_3_0_0 <= 0
 inactive_no_flow_21_4_0_0: flow_21_4_0_0 - 1000 edge_21_4_0_0 <= 0
 inactive_no_flow_21_6_0_0: flow_21_6_0_0 - 1000 edge_21_6_0_0 <= 0
 inactive_no_flow_21_8_0_0: flow_21_8_0_0 - 1000 edge_21_8_0_0 <= 0
 inactive_no_flow_21_9_0_0: flow_21_9_0_0 - 1000 edge_21_9_0_0 <= 0
 inactive_no_flow_21_10_0_0: flow_21_10_0_0 - 1000 edge_21_10_0_0 <= 0
 inactive_no_flow_21_11_0_0: flow_21_11_0_0 - 1000 edge_21_11_0_0 <= 0
 inactive_no_flow_21_12_0_0: flow_21_12_0_0 - 1000 edge_21_12_0_0 <= 0
 inactive_no_flow_21_13_0_0: flow_21_13_0_0 - 1000 edge_21_13_0_0 <= 0
 inactive_no_flow_21_14_0_0: flow_21_14_0_0 - 1000 edge_21_14_0_0 <= 0
 inactive_no_flow_21_15_0_0: flow_21_15_0_0 - 1000 edge_21_15_0_0 <= 0
 inactive_no_flow_21_16_0_0: flow_21_16_0_0 - 1000 edge_21_16_0_0 <= 0
 inactive_no_flow_21_17_0_0: flow_21_17_0_0 - 1000 edge_21_17_0_0 <= 0
 inactive_no_flow_21_18_0_0: flow_21_18_0_0 - 1000 edge_21_18_0_0 <= 0
 inactive_no_flow_21_19_0_0: flow_21_19_0_0 - 1000 edge_21_19_0_0 <= 0
 inactive_no_flow_21_22_0_0: flow_21_22_0_0 - 1000 edge_21_22_0_0 <= 0
Bounds
Binaries
 edge_0_3_0_0 edge_0_4_0_0 edge_0_10_0_0 edge_0_11_0_0 edge_0_13_0_0
 edge_0_14_0_0 edge_0_16_0_0 edge_0_18_0_0 edge_0_19_0_0 edge_0_21_0_0
 edge_3_2_0_0 edge_3_4_0_0 edge_3_6_0_0 edge_3_8_0_0 edge_3_9_0_0
 edge_3_11_0_0 edge_3_12_0_0 edge_3_13_0_0 edge_3_15_0_0 edge_3_22_0_0
 edge_4_2_0_0 edge_4_3_0_0 edge_4_6_0_0 edge_4_7_0_0 edge_4_8_0_0
 edge_4_9_0_0 edge_4_10_0_0 edge_4_11_0_0 edge_4_12_0_0 edge_4_13_0_0
 edge_4_14_0_0 edge_4_15_0_0 edge_4_16_0_0 edge_4_17_0_0 edge_4_18_0_0
 edge_4_19_0_0 edge_4_21_0_0 edge_4_22_0_0 edge_6_7_0_0 edge_6_8_0_0
 edge_6_9_0_0 edge_6_13_0_0 edge_8_9_0_0 edge_9_8_0_0 edge_9_10_0_0
 edge_9_11_0_0 edge_9_12_0_0 edge_10_4_0_0 edge_10_9_0_0 edge_10_11_0_0
 edge_10_12_0_0 edge_10_13_0_0 edge_10_14_0_0 edge_10_15_0_0 edge_10_21_0_0
 edge_11_3_0_0 edge_11_4_0_0 edge_11_6_0_0 edge_11_8_0_0 edge_11_9_0_0
 edge_11_10_0_0 edge_11_12_0_0 edge_11_13_0_0 edge_11_14_0_0 edge_11_15_0_0
 edge_11_16_0_0 edge_11_17_0_0 edge_11_18_0_0 edge_11_19_0_0 edge_11_21_0_0
 edge_11_22_0_0 edge_12_13_0_0 edge_13_3_0_0 edge_13_4_0_0 edge_13_6_0_0
 edge_13_8_0_0 edge_13_9_0_0 edge_13_10_0_0 edge_13_11_0_0 edge_13_12_0_0
 edge_13_14_0_0 edge_13_15_0_0 edge_13_16_0_0 edge_13_17_0_0 edge_13_18_0_0
 edge_13_19_0_0 edge_13_21_0_0 edge_13_22_0_0 edge_14_3_0_0 edge_14_4_0_0
 edge_14_6_0_0 edge_14_8_0_0 edge_14_10_0_0 edge_14_11_0_0 edge_14_12_0_0
 edge_14_13_0_0 edge_14_15_0_0 edge_14_16_0_0 edge_14_17_0_0 edge_14_18_0_0
 edge_14_19_0_0 edge_14_21_0_0 edge_14_22_0_0 edge_15_4_0_0 edge_15_14_0_0
 edge_15_16_0_0 edge_15_17_0_0 edge_15_18_0_0 edge_15_19_0_0 edge_15_21_0_0
 edge_15_22_0_0 edge_16_3_0_0 edge_16_6_0_0 edge_16_10_0_0 edge_16_14_0_0
 edge_16_15_0_0 edge_16_17_0_0 edge_16_18_0_0 edge_16_19_0_0 edge_16_21_0_0
 edge_16_22_0_0 edge_17_18_0_0 edge_18_16_0_0 edge_18_17_0_0 edge_18_19_0_0
 edge_18_22_0_0 edge_19_3_0_0 edge_19_4_0_0 edge_19_10_0_0 edge_19_12_0_0
 edge_19_14_0_0 edge_19_15_0_0 edge_19_16_0_0 edge_19_17_0_0 edge_19_18_0_0
 edge_19_21_0_0 edge_19_22_0_0 edge_21_3_0_0 edge_21_4_0_0 edge_21_6_0_0
 edge_21_8_0_0 edge_21_9_0_0 edge_21_10_0_0 edge_21_11_0_0 edge_21_12_0_0
 edge_21_13_0_0 edge_21_14_0_0 edge_21_15_0_0 edge_21_16_0_0 edge_21_17_0_0
 edge_21_18_0_0 edge_21_19_0_0 edge_21_22_0_0
End
